unsat
(:added-eqs                   6218
 :arith-eq-adapter            50
 :arith-bound-propagations-lp 1712
 :arith-branch                2615
 :arith-conflicts             2668
 :arith-cube-calls            1201
 :arith-diseq                 3928
 :arith-fixed-eqs             2276
 :arith-gcd-calls             4853
 :arith-gcd-conflict          45
 :arith-gomory-cuts           3192
 :arith-hnf-calls             11
 :arith-lower                 55802
 :arith-make-feasible         27001
 :arith-max-columns           114
 :arith-max-rows              70
 :arith-nla-propagate-bounds  4
 :arith-offset-eqs            900
 :arith-patches               4808
 :arith-patches-success       4
 :arith-upper                 93631
 :binary-propagations         106966
 :conflicts                   2692
 :decisions                   14627
 :del-clause                  5440
 :final-checks                4853
 :max-memory                  22.05
 :memory                      17.83
 :minimized-lits              259
 :mk-bool-var                 6891
 :mk-clause                   5799
 :mk-clause-binary            4771
 :num-allocs                  1562864756
 :num-checks                  1
 :propagations                135278
 :restarts                    22
 :rlimit-count                1112797
 :time                        2.34
 :total-time                  2.34)
